(set-logic QF_LRA)
(declare-fun fluent_started_i0_t3@1 () Bool)
(declare-fun fluent_started_i0_t4@1 () Bool)
(declare-fun fluent_started_i0_t5@1 () Bool)
(declare-fun fluent_treated_i0_t0@1 () Bool)
(declare-fun fluent_started_i0_t0@0 () Bool)
(declare-fun fluent_started_i0_t1@0 () Bool)
(declare-fun fluent_started_i0_t2@0 () Bool)
(declare-fun fluent_started_i0_t3@0 () Bool)
(declare-fun fluent_started_i0_t4@0 () Bool)
(declare-fun fluent_started_i0_t5@0 () Bool)
(declare-fun fluent_treated_i0_t1@1 () Bool)
(declare-fun fluent_ready_i0_t0@0 () Bool)
(declare-fun fluent_ready_i0_t1@0 () Bool)
(declare-fun fluent_ready_i0_t2@0 () Bool)
(declare-fun fluent_ready_i0_t3@0 () Bool)
(declare-fun fluent_ready_i0_t4@0 () Bool)
(declare-fun fluent_ready_i0_t5@0 () Bool)
(declare-fun fluent_treated_i0_t3@1 () Bool)
(declare-fun fluent_busy_@0 () Bool)
(declare-fun fluent_treated_i0_t4@1 () Bool)
(declare-fun fluent_treated_i0_t0@0 () Bool)
(declare-fun fluent_treated_i0_t1@0 () Bool)
(declare-fun fluent_treated_i0_t2@0 () Bool)
(declare-fun fluent_treated_i0_t3@0 () Bool)
(declare-fun fluent_treated_i0_t4@0 () Bool)
(declare-fun fluent_treated_i0_t5@0 () Bool)
(declare-fun fluent_ready_i0_t2@1 () Bool)
(declare-fun fluent_ready_i0_t3@1 () Bool)
(declare-fun fluent_ready_i0_t0@1 () Bool)
(declare-fun fluent_ready_i0_t4@1 () Bool)
(declare-fun fluent_ready_i0_t1@1 () Bool)
(declare-fun fluent_ready_i0_t5@1 () Bool)
(declare-fun act_make_treatment@1 () Bool)
(declare-fun fluent_counter_t0@0 () Real)
(declare-fun fluent_counter_t1@0 () Real)
(declare-fun fluent_counter_t2@0 () Real)
(declare-fun fluent_counter_t3@0 () Real)
(declare-fun fluent_counter_t4@0 () Real)
(declare-fun fluent_counter_t5@0 () Real)
(declare-fun dur_make_treatment@1 () Real)
(declare-fun fluent_treated_i0_t2@1 () Bool)
(declare-fun t@1 () Real)
(declare-fun parameter_make_treatment_t@1 () Real)
(declare-fun parameter_make_treatment_i@1 () Real)
(declare-fun fluent_treated_i0_t5@1 () Bool)
(declare-fun parameter_make_treatment_next@1 () Real)
(declare-fun __z3_2 () Real)
(declare-fun __z3_3 () Real)
(declare-fun __z3_4 () Real)
(declare-fun __z3_5 () Real)
(declare-fun __z3_6 () Real)
(declare-fun __z3_7 () Real)
(declare-fun __z3_8 () Real)
(declare-fun __z3_0 () Real)
(declare-fun __z3_1 () Real)
(declare-fun __z3_9 () Real)
(declare-fun fluent_counter_t0@1 () Real)
(declare-fun fluent_counter_t1@1 () Real)
(declare-fun fluent_counter_t2@1 () Real)
(declare-fun fluent_counter_t3@1 () Real)
(declare-fun fluent_counter_t4@1 () Real)
(declare-fun fluent_counter_t5@1 () Real)
(declare-fun fluent_busy_@1 () Bool)
(declare-fun fluent_started_i0_t0@1 () Bool)
(declare-fun fluent_started_i0_t1@1 () Bool)
(declare-fun fluent_started_i0_t2@1 () Bool)
(assert (let ((.def_0 (= __z3_1 __z3_9))) (let ((.def_1 (= parameter_make_treatment_t@1 6.0))) (let ((.def_2 (or .def_1 .def_0))) (let ((.def_3 (= __z3_1 fluent_counter_t5@1))) (let ((.def_4 (not .def_1))) (let ((.def_5 (or .def_4 .def_3))) (let ((.def_6 (= __z3_9 __z3_8))) (let ((.def_7 (= parameter_make_treatment_t@1 5.0))) (let ((.def_8 (or .def_7 .def_6))) (let ((.def_9 (= __z3_9 fluent_counter_t4@1))) (let ((.def_10 (not .def_7))) (let ((.def_11 (or .def_10 .def_9))) (let ((.def_12 (= __z3_8 __z3_7))) (let ((.def_13 (= parameter_make_treatment_t@1 4.0))) (let ((.def_14 (or .def_13 .def_12))) (let ((.def_15 (= __z3_8 fluent_counter_t3@1))) (let ((.def_16 (not .def_13))) (let ((.def_17 (or .def_16 .def_15))) (let ((.def_18 (= __z3_7 __z3_6))) (let ((.def_19 (= parameter_make_treatment_t@1 3.0))) (let ((.def_20 (or .def_19 .def_18))) (let ((.def_21 (= __z3_7 fluent_counter_t2@1))) (let ((.def_22 (not .def_19))) (let ((.def_23 (or .def_22 .def_21))) (let ((.def_24 (= __z3_6 fluent_counter_t0@1))) (let ((.def_25 (= parameter_make_treatment_t@1 2.0))) (let ((.def_26 (or .def_25 .def_24))) (let ((.def_27 (= __z3_6 fluent_counter_t1@1))) (let ((.def_28 (not .def_25))) (let ((.def_29 (or .def_28 .def_27))) (let ((.def_30 (= __z3_0 __z3_5))) (let ((.def_31 (or .def_1 .def_30))) (let ((.def_32 (= __z3_0 fluent_counter_t5@0))) (let ((.def_33 (or .def_4 .def_32))) (let ((.def_34 (= __z3_5 __z3_4))) (let ((.def_35 (or .def_7 .def_34))) (let ((.def_36 (= __z3_5 fluent_counter_t4@0))) (let ((.def_37 (or .def_10 .def_36))) (let ((.def_38 (= __z3_4 __z3_3))) (let ((.def_39 (or .def_13 .def_38))) (let ((.def_40 (= __z3_4 fluent_counter_t3@0))) (let ((.def_41 (or .def_16 .def_40))) (let ((.def_42 (= __z3_3 __z3_2))) (let ((.def_43 (or .def_19 .def_42))) (let ((.def_44 (= __z3_3 fluent_counter_t2@0))) (let ((.def_45 (or .def_22 .def_44))) (let ((.def_46 (= __z3_2 fluent_counter_t0@0))) (let ((.def_47 (or .def_25 .def_46))) (let ((.def_48 (= __z3_2 fluent_counter_t1@0))) (let ((.def_49 (or .def_28 .def_48))) (let ((.def_50 (<= 0.0 fluent_counter_t0@1))) (let ((.def_51 (<= fluent_counter_t5@1 31.0))) (let ((.def_52 (<= 0.0 fluent_counter_t5@1))) (let ((.def_53 (<= fluent_counter_t4@1 31.0))) (let ((.def_54 (<= 0.0 fluent_counter_t4@1))) (let ((.def_55 (<= fluent_counter_t3@1 31.0))) (let ((.def_56 (<= 0.0 fluent_counter_t3@1))) (let ((.def_57 (<= fluent_counter_t2@1 31.0))) (let ((.def_58 (<= 0.0 fluent_counter_t2@1))) (let ((.def_59 (<= fluent_counter_t1@1 31.0))) (let ((.def_60 (<= 0.0 fluent_counter_t1@1))) (let ((.def_61 (<= fluent_counter_t0@1 31.0))) (let ((.def_62 (= parameter_make_treatment_i@1 0.0))) (let ((.def_63 (= parameter_make_treatment_next@1 6.0))) (let ((.def_64 (= parameter_make_treatment_next@1 5.0))) (let ((.def_65 (= parameter_make_treatment_next@1 4.0))) (let ((.def_66 (= parameter_make_treatment_next@1 3.0))) (let ((.def_67 (= parameter_make_treatment_next@1 2.0))) (let ((.def_68 (= parameter_make_treatment_next@1 1.0))) (let ((.def_69 (or .def_68 .def_67 .def_66 .def_65 .def_64 .def_63))) (let ((.def_70 (= parameter_make_treatment_t@1 1.0))) (let ((.def_71 (or .def_70 .def_25 .def_19 .def_13 .def_7 .def_1))) (let ((.def_72 (and act_make_treatment@1 true .def_1))) (let ((.def_73 (= fluent_counter_t5@0 fluent_counter_t5@1))) (let ((.def_74 (not .def_73))) (let ((.def_75 (=> .def_74 .def_72))) (let ((.def_76 (and act_make_treatment@1 true .def_7))) (let ((.def_77 (= fluent_counter_t4@0 fluent_counter_t4@1))) (let ((.def_78 (not .def_77))) (let ((.def_79 (=> .def_78 .def_76))) (let ((.def_80 (and act_make_treatment@1 true .def_13))) (let ((.def_81 (= fluent_counter_t3@0 fluent_counter_t3@1))) (let ((.def_82 (not .def_81))) (let ((.def_83 (=> .def_82 .def_80))) (let ((.def_84 (and act_make_treatment@1 true .def_19))) (let ((.def_85 (= fluent_counter_t2@0 fluent_counter_t2@1))) (let ((.def_86 (not .def_85))) (let ((.def_87 (=> .def_86 .def_84))) (let ((.def_88 (and act_make_treatment@1 true .def_25))) (let ((.def_89 (= fluent_counter_t1@0 fluent_counter_t1@1))) (let ((.def_90 (not .def_89))) (let ((.def_91 (=> .def_90 .def_88))) (let ((.def_92 (and act_make_treatment@1 true .def_70))) (let ((.def_93 (= fluent_counter_t0@0 fluent_counter_t0@1))) (let ((.def_94 (not .def_93))) (let ((.def_95 (=> .def_94 .def_92))) (let ((.def_96 (+ t@1 10.0))) (let ((.def_97 (= t@1 .def_96))) (let ((.def_98 (and act_make_treatment@1 true .def_97 .def_62 .def_63))) (let ((.def_99 (= fluent_ready_i0_t5@0 fluent_ready_i0_t5@1))) (let ((.def_100 (not .def_99))) (let ((.def_101 (=> .def_100 .def_98))) (let ((.def_102 (and act_make_treatment@1 true .def_97 .def_62 .def_64))) (let ((.def_103 (= fluent_ready_i0_t4@0 fluent_ready_i0_t4@1))) (let ((.def_104 (not .def_103))) (let ((.def_105 (=> .def_104 .def_102))) (let ((.def_106 (and act_make_treatment@1 true .def_97 .def_62 .def_65))) (let ((.def_107 (= fluent_ready_i0_t3@0 fluent_ready_i0_t3@1))) (let ((.def_108 (not .def_107))) (let ((.def_109 (=> .def_108 .def_106))) (let ((.def_110 (and act_make_treatment@1 true .def_97 .def_62 .def_66))) (let ((.def_111 (= fluent_ready_i0_t2@0 fluent_ready_i0_t2@1))) (let ((.def_112 (not .def_111))) (let ((.def_113 (=> .def_112 .def_110))) (let ((.def_114 (and act_make_treatment@1 true .def_97 .def_62 .def_67))) (let ((.def_115 (= fluent_ready_i0_t1@0 fluent_ready_i0_t1@1))) (let ((.def_116 (not .def_115))) (let ((.def_117 (=> .def_116 .def_114))) (let ((.def_118 (and act_make_treatment@1 true .def_97 .def_62 .def_68))) (let ((.def_119 (= fluent_ready_i0_t0@0 fluent_ready_i0_t0@1))) (let ((.def_120 (not .def_119))) (let ((.def_121 (=> .def_120 .def_118))) (let ((.def_122 (and act_make_treatment@1 true .def_62 .def_1))) (let ((.def_123 (= fluent_started_i0_t5@0 fluent_started_i0_t5@1))) (let ((.def_124 (not .def_123))) (let ((.def_125 (=> .def_124 .def_122))) (let ((.def_126 (and act_make_treatment@1 true .def_62 .def_7))) (let ((.def_127 (= fluent_started_i0_t4@0 fluent_started_i0_t4@1))) (let ((.def_128 (not .def_127))) (let ((.def_129 (=> .def_128 .def_126))) (let ((.def_130 (and act_make_treatment@1 true .def_62 .def_13))) (let ((.def_131 (= fluent_started_i0_t3@0 fluent_started_i0_t3@1))) (let ((.def_132 (not .def_131))) (let ((.def_133 (=> .def_132 .def_130))) (let ((.def_134 (and act_make_treatment@1 true .def_62 .def_19))) (let ((.def_135 (= fluent_started_i0_t2@0 fluent_started_i0_t2@1))) (let ((.def_136 (not .def_135))) (let ((.def_137 (=> .def_136 .def_134))) (let ((.def_138 (and act_make_treatment@1 true .def_62 .def_25))) (let ((.def_139 (= fluent_started_i0_t1@0 fluent_started_i0_t1@1))) (let ((.def_140 (not .def_139))) (let ((.def_141 (=> .def_140 .def_138))) (let ((.def_142 (and act_make_treatment@1 true .def_62 .def_70))) (let ((.def_143 (= fluent_started_i0_t0@0 fluent_started_i0_t0@1))) (let ((.def_144 (not .def_143))) (let ((.def_145 (=> .def_144 .def_142))) (let ((.def_146 (+ t@1 4.0))) (let ((.def_147 (= t@1 .def_146))) (let ((.def_148 (and act_make_treatment@1 true .def_147 .def_62 .def_1))) (let ((.def_149 (= fluent_treated_i0_t5@0 fluent_treated_i0_t5@1))) (let ((.def_150 (not .def_149))) (let ((.def_151 (=> .def_150 .def_148))) (let ((.def_152 (and act_make_treatment@1 true .def_147 .def_62 .def_7))) (let ((.def_153 (= fluent_treated_i0_t4@0 fluent_treated_i0_t4@1))) (let ((.def_154 (not .def_153))) (let ((.def_155 (=> .def_154 .def_152))) (let ((.def_156 (and act_make_treatment@1 true .def_147 .def_62 .def_13))) (let ((.def_157 (= fluent_treated_i0_t3@0 fluent_treated_i0_t3@1))) (let ((.def_158 (not .def_157))) (let ((.def_159 (=> .def_158 .def_156))) (let ((.def_160 (and act_make_treatment@1 true .def_147 .def_62 .def_19))) (let ((.def_161 (= fluent_treated_i0_t2@0 fluent_treated_i0_t2@1))) (let ((.def_162 (not .def_161))) (let ((.def_163 (=> .def_162 .def_160))) (let ((.def_164 (and act_make_treatment@1 true .def_147 .def_62 .def_25))) (let ((.def_165 (= fluent_treated_i0_t1@0 fluent_treated_i0_t1@1))) (let ((.def_166 (not .def_165))) (let ((.def_167 (=> .def_166 .def_164))) (let ((.def_168 (and act_make_treatment@1 true .def_147 .def_62 .def_70))) (let ((.def_169 (= fluent_treated_i0_t0@0 fluent_treated_i0_t0@1))) (let ((.def_170 (not .def_169))) (let ((.def_171 (=> .def_170 .def_168))) (let ((.def_172 (and act_make_treatment@1 true .def_147))) (let ((.def_173 (and act_make_treatment@1 true))) (let ((.def_174 (and .def_173 .def_172))) (let ((.def_175 (not .def_174))) (let ((.def_176 (or .def_173 .def_172))) (let ((.def_177 (= fluent_busy_@0 fluent_busy_@1))) (let ((.def_178 (not .def_177))) (let ((.def_179 (=> .def_178 .def_176))) (let ((.def_180 (<= 0.0 t@1))) (let ((.def_181 (and .def_62 .def_67))) (let ((.def_182 (or .def_181 fluent_ready_i0_t0@1))) (let ((.def_183 (not .def_181))) (let ((.def_184 (or .def_183 fluent_ready_i0_t1@1))) (let ((.def_185 (and .def_184 .def_182))) (let ((.def_186 (and .def_62 .def_66))) (let ((.def_187 (or .def_186 .def_185))) (let ((.def_188 (not .def_186))) (let ((.def_189 (or .def_188 fluent_ready_i0_t2@1))) (let ((.def_190 (and .def_189 .def_187))) (let ((.def_191 (and .def_62 .def_65))) (let ((.def_192 (or .def_191 .def_190))) (let ((.def_193 (not .def_191))) (let ((.def_194 (or .def_193 fluent_ready_i0_t3@1))) (let ((.def_195 (and .def_194 .def_192))) (let ((.def_196 (and .def_62 .def_64))) (let ((.def_197 (or .def_196 .def_195))) (let ((.def_198 (not .def_196))) (let ((.def_199 (or .def_198 fluent_ready_i0_t4@1))) (let ((.def_200 (and .def_199 .def_197))) (let ((.def_201 (and .def_62 .def_63))) (let ((.def_202 (or .def_201 .def_200))) (let ((.def_203 (not .def_201))) (let ((.def_204 (or .def_203 fluent_ready_i0_t5@1))) (let ((.def_205 (and .def_204 .def_202))) (let ((.def_206 (= .def_205 true))) (let ((.def_207 (=> true .def_206))) (let ((.def_208 (and .def_97 .def_207))) (let ((.def_209 (= fluent_busy_@1 false))) (let ((.def_210 (=> true .def_209))) (let ((.def_211 (and .def_62 .def_25))) (let ((.def_212 (or .def_211 fluent_treated_i0_t0@1))) (let ((.def_213 (not .def_211))) (let ((.def_214 (or .def_213 fluent_treated_i0_t1@1))) (let ((.def_215 (and .def_214 .def_212))) (let ((.def_216 (and .def_62 .def_19))) (let ((.def_217 (or .def_216 .def_215))) (let ((.def_218 (not .def_216))) (let ((.def_219 (or .def_218 fluent_treated_i0_t2@1))) (let ((.def_220 (and .def_219 .def_217))) (let ((.def_221 (and .def_62 .def_13))) (let ((.def_222 (or .def_221 .def_220))) (let ((.def_223 (not .def_221))) (let ((.def_224 (or .def_223 fluent_treated_i0_t3@1))) (let ((.def_225 (and .def_224 .def_222))) (let ((.def_226 (and .def_62 .def_7))) (let ((.def_227 (or .def_226 .def_225))) (let ((.def_228 (not .def_226))) (let ((.def_229 (or .def_228 fluent_treated_i0_t4@1))) (let ((.def_230 (and .def_229 .def_227))) (let ((.def_231 (and .def_62 .def_1))) (let ((.def_232 (or .def_231 .def_230))) (let ((.def_233 (not .def_231))) (let ((.def_234 (or .def_233 fluent_treated_i0_t5@1))) (let ((.def_235 (and .def_234 .def_232))) (let ((.def_236 (= .def_235 true))) (let ((.def_237 (=> true .def_236))) (let ((.def_238 (and .def_147 .def_237 .def_210))) (let ((.def_239 (or .def_211 fluent_started_i0_t0@1))) (let ((.def_240 (or .def_213 fluent_started_i0_t1@1))) (let ((.def_241 (and .def_240 .def_239))) (let ((.def_242 (or .def_216 .def_241))) (let ((.def_243 (or .def_218 fluent_started_i0_t2@1))) (let ((.def_244 (and .def_243 .def_242))) (let ((.def_245 (or .def_221 .def_244))) (let ((.def_246 (or .def_223 fluent_started_i0_t3@1))) (let ((.def_247 (and .def_246 .def_245))) (let ((.def_248 (or .def_226 .def_247))) (let ((.def_249 (or .def_228 fluent_started_i0_t4@1))) (let ((.def_250 (and .def_249 .def_248))) (let ((.def_251 (or .def_231 .def_250))) (let ((.def_252 (or .def_233 fluent_started_i0_t5@1))) (let ((.def_253 (and .def_252 .def_251))) (let ((.def_254 (= .def_253 true))) (let ((.def_255 (=> true .def_254))) (let ((.def_256 (= fluent_busy_@1 true))) (let ((.def_257 (=> true .def_256))) (let ((.def_258 (+ __z3_0 1.0))) (let ((.def_259 (= __z3_1 .def_258))) (let ((.def_260 (=> true .def_259))) (let ((.def_261 (= t@1 t@1))) (let ((.def_262 (and .def_261 .def_260 .def_257 .def_255))) (let ((.def_263 (or .def_181 fluent_started_i0_t0@0))) (let ((.def_264 (or .def_183 fluent_started_i0_t1@0))) (let ((.def_265 (and .def_264 .def_263))) (let ((.def_266 (or .def_186 .def_265))) (let ((.def_267 (or .def_188 fluent_started_i0_t2@0))) (let ((.def_268 (and .def_267 .def_266))) (let ((.def_269 (or .def_191 .def_268))) (let ((.def_270 (or .def_193 fluent_started_i0_t3@0))) (let ((.def_271 (and .def_270 .def_269))) (let ((.def_272 (or .def_196 .def_271))) (let ((.def_273 (or .def_198 fluent_started_i0_t4@0))) (let ((.def_274 (and .def_273 .def_272))) (let ((.def_275 (or .def_201 .def_274))) (let ((.def_276 (or .def_203 fluent_started_i0_t5@0))) (let ((.def_277 (and .def_276 .def_275))) (let ((.def_278 (+ t@1 dur_make_treatment@1))) (let ((.def_279 (<= .def_278 t@1))) (let ((.def_280 (< (- 1.0) .def_278))) (let ((.def_281 (and .def_280 .def_279))) (let ((.def_282 (=> .def_281 .def_277))) (let ((.def_283 (or .def_211 fluent_ready_i0_t0@0))) (let ((.def_284 (or .def_213 fluent_ready_i0_t1@0))) (let ((.def_285 (and .def_284 .def_283))) (let ((.def_286 (or .def_216 .def_285))) (let ((.def_287 (or .def_218 fluent_ready_i0_t2@0))) (let ((.def_288 (and .def_287 .def_286))) (let ((.def_289 (or .def_221 .def_288))) (let ((.def_290 (or .def_223 fluent_ready_i0_t3@0))) (let ((.def_291 (and .def_290 .def_289))) (let ((.def_292 (or .def_226 .def_291))) (let ((.def_293 (or .def_228 fluent_ready_i0_t4@0))) (let ((.def_294 (and .def_293 .def_292))) (let ((.def_295 (or .def_231 .def_294))) (let ((.def_296 (or .def_233 fluent_ready_i0_t5@0))) (let ((.def_297 (and .def_296 .def_295))) (let ((.def_298 (or .def_211 fluent_started_i0_t0@0))) (let ((.def_299 (or .def_213 fluent_started_i0_t1@0))) (let ((.def_300 (and .def_299 .def_298))) (let ((.def_301 (or .def_216 .def_300))) (let ((.def_302 (or .def_218 fluent_started_i0_t2@0))) (let ((.def_303 (and .def_302 .def_301))) (let ((.def_304 (or .def_221 .def_303))) (let ((.def_305 (or .def_223 fluent_started_i0_t3@0))) (let ((.def_306 (and .def_305 .def_304))) (let ((.def_307 (or .def_226 .def_306))) (let ((.def_308 (or .def_228 fluent_started_i0_t4@0))) (let ((.def_309 (and .def_308 .def_307))) (let ((.def_310 (or .def_231 .def_309))) (let ((.def_311 (or .def_233 fluent_started_i0_t5@0))) (let ((.def_312 (and .def_311 .def_310))) (let ((.def_313 (not .def_312))) (let ((.def_314 (or .def_211 fluent_treated_i0_t0@0))) (let ((.def_315 (or .def_213 fluent_treated_i0_t1@0))) (let ((.def_316 (and .def_315 .def_314))) (let ((.def_317 (or .def_216 .def_316))) (let ((.def_318 (or .def_218 fluent_treated_i0_t2@0))) (let ((.def_319 (and .def_318 .def_317))) (let ((.def_320 (or .def_221 .def_319))) (let ((.def_321 (or .def_223 fluent_treated_i0_t3@0))) (let ((.def_322 (and .def_321 .def_320))) (let ((.def_323 (or .def_226 .def_322))) (let ((.def_324 (or .def_228 fluent_treated_i0_t4@0))) (let ((.def_325 (and .def_324 .def_323))) (let ((.def_326 (or .def_231 .def_325))) (let ((.def_327 (or .def_233 fluent_treated_i0_t5@0))) (let ((.def_328 (and .def_327 .def_326))) (let ((.def_329 (not .def_328))) (let ((.def_330 (not fluent_busy_@0))) (let ((.def_331 (and .def_25 .def_68))) (let ((.def_332 (or .def_331 false))) (let ((.def_333 (not .def_331))) (let ((.def_334 (or .def_333 false))) (let ((.def_335 (and .def_334 .def_332))) (let ((.def_336 (and .def_19 .def_68))) (let ((.def_337 (or .def_336 .def_335))) (let ((.def_338 (not .def_336))) (let ((.def_339 (or .def_338 false))) (let ((.def_340 (and .def_339 .def_337))) (let ((.def_341 (and .def_13 .def_68))) (let ((.def_342 (or .def_341 .def_340))) (let ((.def_343 (not .def_341))) (let ((.def_344 (or .def_343 false))) (let ((.def_345 (and .def_344 .def_342))) (let ((.def_346 (and .def_7 .def_68))) (let ((.def_347 (or .def_346 .def_345))) (let ((.def_348 (not .def_346))) (let ((.def_349 (or .def_348 false))) (let ((.def_350 (and .def_349 .def_347))) (let ((.def_351 (and .def_1 .def_68))) (let ((.def_352 (or .def_351 .def_350))) (let ((.def_353 (not .def_351))) (let ((.def_354 (or .def_353 false))) (let ((.def_355 (and .def_354 .def_352))) (let ((.def_356 (and .def_70 .def_67))) (let ((.def_357 (or .def_356 .def_355))) (let ((.def_358 (not .def_356))) (let ((.def_359 (or .def_358 true))) (let ((.def_360 (and .def_359 .def_357))) (let ((.def_361 (and .def_25 .def_67))) (let ((.def_362 (or .def_361 .def_360))) (let ((.def_363 (not .def_361))) (let ((.def_364 (or .def_363 false))) (let ((.def_365 (and .def_364 .def_362))) (let ((.def_366 (and .def_19 .def_67))) (let ((.def_367 (or .def_366 .def_365))) (let ((.def_368 (not .def_366))) (let ((.def_369 (or .def_368 false))) (let ((.def_370 (and .def_369 .def_367))) (let ((.def_371 (and .def_13 .def_67))) (let ((.def_372 (or .def_371 .def_370))) (let ((.def_373 (not .def_371))) (let ((.def_374 (or .def_373 false))) (let ((.def_375 (and .def_374 .def_372))) (let ((.def_376 (and .def_7 .def_67))) (let ((.def_377 (or .def_376 .def_375))) (let ((.def_378 (not .def_376))) (let ((.def_379 (or .def_378 false))) (let ((.def_380 (and .def_379 .def_377))) (let ((.def_381 (and .def_1 .def_67))) (let ((.def_382 (or .def_381 .def_380))) (let ((.def_383 (not .def_381))) (let ((.def_384 (or .def_383 false))) (let ((.def_385 (and .def_384 .def_382))) (let ((.def_386 (and .def_70 .def_66))) (let ((.def_387 (or .def_386 .def_385))) (let ((.def_388 (not .def_386))) (let ((.def_389 (or .def_388 false))) (let ((.def_390 (and .def_389 .def_387))) (let ((.def_391 (and .def_25 .def_66))) (let ((.def_392 (or .def_391 .def_390))) (let ((.def_393 (not .def_391))) (let ((.def_394 (or .def_393 true))) (let ((.def_395 (and .def_394 .def_392))) (let ((.def_396 (and .def_19 .def_66))) (let ((.def_397 (or .def_396 .def_395))) (let ((.def_398 (not .def_396))) (let ((.def_399 (or .def_398 false))) (let ((.def_400 (and .def_399 .def_397))) (let ((.def_401 (and .def_13 .def_66))) (let ((.def_402 (or .def_401 .def_400))) (let ((.def_403 (not .def_401))) (let ((.def_404 (or .def_403 false))) (let ((.def_405 (and .def_404 .def_402))) (let ((.def_406 (and .def_7 .def_66))) (let ((.def_407 (or .def_406 .def_405))) (let ((.def_408 (not .def_406))) (let ((.def_409 (or .def_408 false))) (let ((.def_410 (and .def_409 .def_407))) (let ((.def_411 (and .def_1 .def_66))) (let ((.def_412 (or .def_411 .def_410))) (let ((.def_413 (not .def_411))) (let ((.def_414 (or .def_413 false))) (let ((.def_415 (and .def_414 .def_412))) (let ((.def_416 (and .def_70 .def_65))) (let ((.def_417 (or .def_416 .def_415))) (let ((.def_418 (not .def_416))) (let ((.def_419 (or .def_418 false))) (let ((.def_420 (and .def_419 .def_417))) (let ((.def_421 (and .def_25 .def_65))) (let ((.def_422 (or .def_421 .def_420))) (let ((.def_423 (not .def_421))) (let ((.def_424 (or .def_423 false))) (let ((.def_425 (and .def_424 .def_422))) (let ((.def_426 (and .def_19 .def_65))) (let ((.def_427 (or .def_426 .def_425))) (let ((.def_428 (not .def_426))) (let ((.def_429 (or .def_428 true))) (let ((.def_430 (and .def_429 .def_427))) (let ((.def_431 (and .def_13 .def_65))) (let ((.def_432 (or .def_431 .def_430))) (let ((.def_433 (not .def_431))) (let ((.def_434 (or .def_433 false))) (let ((.def_435 (and .def_434 .def_432))) (let ((.def_436 (and .def_7 .def_65))) (let ((.def_437 (or .def_436 .def_435))) (let ((.def_438 (not .def_436))) (let ((.def_439 (or .def_438 false))) (let ((.def_440 (and .def_439 .def_437))) (let ((.def_441 (and .def_1 .def_65))) (let ((.def_442 (or .def_441 .def_440))) (let ((.def_443 (not .def_441))) (let ((.def_444 (or .def_443 false))) (let ((.def_445 (and .def_444 .def_442))) (let ((.def_446 (and .def_70 .def_64))) (let ((.def_447 (or .def_446 .def_445))) (let ((.def_448 (not .def_446))) (let ((.def_449 (or .def_448 false))) (let ((.def_450 (and .def_449 .def_447))) (let ((.def_451 (and .def_25 .def_64))) (let ((.def_452 (or .def_451 .def_450))) (let ((.def_453 (not .def_451))) (let ((.def_454 (or .def_453 false))) (let ((.def_455 (and .def_454 .def_452))) (let ((.def_456 (and .def_19 .def_64))) (let ((.def_457 (or .def_456 .def_455))) (let ((.def_458 (not .def_456))) (let ((.def_459 (or .def_458 false))) (let ((.def_460 (and .def_459 .def_457))) (let ((.def_461 (and .def_13 .def_64))) (let ((.def_462 (or .def_461 .def_460))) (let ((.def_463 (not .def_461))) (let ((.def_464 (or .def_463 true))) (let ((.def_465 (and .def_464 .def_462))) (let ((.def_466 (and .def_7 .def_64))) (let ((.def_467 (or .def_466 .def_465))) (let ((.def_468 (not .def_466))) (let ((.def_469 (or .def_468 false))) (let ((.def_470 (and .def_469 .def_467))) (let ((.def_471 (and .def_1 .def_64))) (let ((.def_472 (or .def_471 .def_470))) (let ((.def_473 (not .def_471))) (let ((.def_474 (or .def_473 false))) (let ((.def_475 (and .def_474 .def_472))) (let ((.def_476 (and .def_70 .def_63))) (let ((.def_477 (or .def_476 .def_475))) (let ((.def_478 (not .def_476))) (let ((.def_479 (or .def_478 false))) (let ((.def_480 (and .def_479 .def_477))) (let ((.def_481 (and .def_25 .def_63))) (let ((.def_482 (or .def_481 .def_480))) (let ((.def_483 (not .def_481))) (let ((.def_484 (or .def_483 false))) (let ((.def_485 (and .def_484 .def_482))) (let ((.def_486 (and .def_19 .def_63))) (let ((.def_487 (or .def_486 .def_485))) (let ((.def_488 (not .def_486))) (let ((.def_489 (or .def_488 false))) (let ((.def_490 (and .def_489 .def_487))) (let ((.def_491 (and .def_13 .def_63))) (let ((.def_492 (or .def_491 .def_490))) (let ((.def_493 (not .def_491))) (let ((.def_494 (or .def_493 false))) (let ((.def_495 (and .def_494 .def_492))) (let ((.def_496 (and .def_7 .def_63))) (let ((.def_497 (or .def_496 .def_495))) (let ((.def_498 (not .def_496))) (let ((.def_499 (or .def_498 true))) (let ((.def_500 (and .def_499 .def_497))) (let ((.def_501 (and .def_1 .def_63))) (let ((.def_502 (or .def_501 .def_500))) (let ((.def_503 (not .def_501))) (let ((.def_504 (or .def_503 false))) (let ((.def_505 (and .def_504 .def_502))) (let ((.def_506 (= 0.0 __z3_0))) (let ((.def_507 (and .def_506 .def_505 .def_330 .def_329 .def_313 .def_297))) (let ((.def_508 (<= t@1 t@1))) (let ((.def_509 (< (- 1.0) t@1))) (let ((.def_510 (and .def_509 .def_508))) (let ((.def_511 (=> .def_510 .def_507))) (let ((.def_512 (<= dur_make_treatment@1 15.0))) (let ((.def_513 (<= 15.0 dur_make_treatment@1))) (let ((.def_514 (and .def_513 .def_512))) (let ((.def_515 (and .def_514 .def_279 .def_511 .def_282 .def_262 .def_238 .def_208))) (let ((.def_516 (=> act_make_treatment@1 .def_515))) (let ((.def_517 (<= fluent_counter_t3@0 31.0))) (let ((.def_518 (<= 0.0 fluent_counter_t3@0))) (let ((.def_519 (<= fluent_counter_t2@0 31.0))) (let ((.def_520 (<= 0.0 fluent_counter_t2@0))) (let ((.def_521 (<= fluent_counter_t1@0 31.0))) (let ((.def_522 (<= 0.0 fluent_counter_t1@0))) (let ((.def_523 (<= fluent_counter_t0@0 31.0))) (let ((.def_524 (<= 0.0 fluent_counter_t0@0))) (let ((.def_525 (<= fluent_counter_t5@0 31.0))) (let ((.def_526 (<= 0.0 fluent_counter_t5@0))) (let ((.def_527 (<= fluent_counter_t4@0 31.0))) (let ((.def_528 (<= 0.0 fluent_counter_t4@0))) (let ((.def_529 (= fluent_counter_t5@0 0.0))) (let ((.def_530 (= fluent_counter_t4@0 0.0))) (let ((.def_531 (= fluent_counter_t3@0 0.0))) (let ((.def_532 (= fluent_counter_t2@0 0.0))) (let ((.def_533 (= fluent_counter_t1@0 0.0))) (let ((.def_534 (= fluent_counter_t0@0 0.0))) (let ((.def_535 (= false false))) (let ((.def_536 (= fluent_ready_i0_t5@0 false))) (let ((.def_537 (= fluent_ready_i0_t4@0 false))) (let ((.def_538 (= fluent_ready_i0_t3@0 false))) (let ((.def_539 (= fluent_ready_i0_t2@0 false))) (let ((.def_540 (= fluent_ready_i0_t1@0 false))) (let ((.def_541 (= fluent_started_i0_t4@0 false))) (let ((.def_542 (= fluent_started_i0_t3@0 false))) (let ((.def_543 (= fluent_started_i0_t2@0 false))) (let ((.def_544 (= fluent_started_i0_t1@0 false))) (let ((.def_545 (= fluent_started_i0_t0@0 false))) (let ((.def_546 (= fluent_treated_i0_t5@0 false))) (let ((.def_547 (= fluent_treated_i0_t4@0 false))) (let ((.def_548 (= fluent_treated_i0_t3@0 false))) (let ((.def_549 (= fluent_treated_i0_t2@0 false))) (let ((.def_550 (= fluent_treated_i0_t1@0 false))) (let ((.def_551 (= fluent_treated_i0_t0@0 false))) (let ((.def_552 (= fluent_busy_@0 false))) (let ((.def_553 (= fluent_ready_i0_t0@0 true))) (let ((.def_554 (= fluent_started_i0_t5@0 true))) (let ((.def_555 (= true true))) (let ((.def_556 (= 0.0 0.0))) (let ((.def_557 (and .def_556 .def_555 .def_555 .def_555 .def_555 .def_555 .def_554 .def_553 .def_552 .def_551 .def_550 .def_549 .def_548 .def_547 .def_546 .def_545 .def_544 .def_543 .def_542 .def_541 .def_540 .def_539 .def_538 .def_537 .def_536 .def_535 .def_535 .def_535 .def_535 .def_535 .def_535 .def_535 .def_535 .def_535 .def_535 .def_535 .def_535 .def_535 .def_535 .def_535 .def_535 .def_535 .def_535 .def_535 .def_535 .def_535 .def_535 .def_535 .def_535 .def_535 .def_535 .def_535 .def_535 .def_535 .def_535 .def_535 .def_534 .def_533 .def_532 .def_531 .def_530 .def_529 .def_528 .def_527 .def_526 .def_525 .def_524 .def_523 .def_522 .def_521 .def_520 .def_519 .def_518 .def_517 .def_516 .def_180 .def_179 .def_175 .def_171 .def_167 .def_163 .def_159 .def_155 .def_151 .def_145 .def_141 .def_137 .def_133 .def_129 .def_125 .def_121 .def_117 .def_113 .def_109 .def_105 .def_101 .def_95 .def_91 .def_87 .def_83 .def_79 .def_75 .def_71 .def_69 .def_62 .def_61 .def_60 .def_59 .def_58 .def_57 .def_56 .def_55 .def_54 .def_53 .def_52 .def_51 .def_50 .def_49 .def_47 .def_45 .def_43 .def_41 .def_39 .def_37 .def_35 .def_33 .def_31 .def_29 .def_26 .def_23 .def_20 .def_17 .def_14 .def_11 .def_8 .def_5 .def_2))) .def_557)))))))))))))))))))))))))))))))))))))))))))))))))))))))))))))))))))))))))))))))))))))))))))))))))))))))))))))))))))))))))))))))))))))))))))))))))))))))))))))))))))))))))))))))))))))))))))))))))))))))))))))))))))))))))))))))))))))))))))))))))))))))))))))))))))))))))))))))))))))))))))))))))))))))))))))))))))))))))))))))))))))))))))))))))))))))))))))))))))))))))))))))))))))))))))))))))))))))))))))))))))))))))))))))))))))))))))))))))))))))))))))))))))))))))))))))))))))))))))))))))))))))))))))))))))))))))))))))))))))))))))))))))))))))))))))))))))))))))))))))
(check-sat)
